
n_res = 4;
rcap = [78, 70, 847, 821];
rtype = [1, 1, 2, 2];
n_tasks = 50;
modes =  [{1, 2, 3, 4, 5, 6, 7, 8, 9}, {10, 11, 12, 13, 14, 15, 16, 17, 18}, {19, 20, 21, 22, 23, 24, 25, 26, 27}, {28, 29, 30, 31, 32, 33, 34, 35, 36}, {37, 38, 39, 40, 41, 42, 43, 44, 45}, {46, 47, 48, 49, 50, 51, 52, 53, 54}, {55, 56, 57, 58, 59, 60, 61, 62, 63}, {64, 65, 66, 67, 68, 69, 70, 71, 72}, {73, 74, 75, 76, 77, 78, 79, 80, 81}, {82, 83, 84, 85, 86, 87, 88, 89, 90}, {91, 92, 93, 94, 95, 96, 97, 98, 99}, {100, 101, 102, 103, 104, 105, 106, 107, 108}, {109, 110, 111, 112, 113, 114, 115, 116, 117}, {118, 119, 120, 121, 122, 123, 124, 125, 126}, {127, 128, 129, 130, 131, 132, 133, 134, 135}, {136, 137, 138, 139, 140, 141, 142, 143, 144}, {145, 146, 147, 148, 149, 150, 151, 152, 153}, {154, 155, 156, 157, 158, 159, 160, 161, 162}, {163, 164, 165, 166, 167, 168, 169, 170, 171}, {172, 173, 174, 175, 176, 177, 178, 179, 180}, {181, 182, 183, 184, 185, 186, 187, 188, 189}, {190, 191, 192, 193, 194, 195, 196, 197, 198}, {199, 200, 201, 202, 203, 204, 205, 206, 207}, {208, 209, 210, 211, 212, 213, 214, 215, 216}, {217, 218, 219, 220, 221, 222, 223, 224, 225}, {226, 227, 228, 229, 230, 231, 232, 233, 234}, {235, 236, 237, 238, 239, 240, 241, 242, 243}, {244, 245, 246, 247, 248, 249, 250, 251, 252}, {253, 254, 255, 256, 257, 258, 259, 260, 261}, {262, 263, 264, 265, 266, 267, 268, 269, 270}, {271, 272, 273, 274, 275, 276, 277, 278, 279}, {280, 281, 282, 283, 284, 285, 286, 287, 288}, {289, 290, 291, 292, 293, 294, 295, 296, 297}, {298, 299, 300, 301, 302, 303, 304, 305, 306}, {307, 308, 309, 310, 311, 312, 313, 314, 315}, {316, 317, 318, 319, 320, 321, 322, 323, 324}, {325, 326, 327, 328, 329, 330, 331, 332, 333}, {334, 335, 336, 337, 338, 339, 340, 341, 342}, {343, 344, 345, 346, 347, 348, 349, 350, 351}, {352, 353, 354, 355, 356, 357, 358, 359, 360}, {361, 362, 363, 364, 365, 366, 367, 368, 369}, {370, 371, 372, 373, 374, 375, 376, 377, 378}, {379, 380, 381, 382, 383, 384, 385, 386, 387}, {388, 389, 390, 391, 392, 393, 394, 395, 396}, {397, 398, 399, 400, 401, 402, 403, 404, 405}, {406, 407, 408, 409, 410, 411, 412, 413, 414}, {415, 416, 417, 418, 419, 420, 421, 422, 423}, {424, 425, 426, 427, 428, 429, 430, 431, 432}, {433, 434, 435, 436, 437, 438, 439, 440, 441}, {442, 443, 444, 445, 446, 447, 448, 449, 450}];
succ =  [{21, 6, 5}, {40, 31, 28, 21, 19, 18, 15, 13, 12}, {40, 34, 32, 31, 29, 28, 26, 24, 21, 19, 18, 17, 15}, {40, 27, 26, 25, 23, 11, 10}, {34, 25, 19, 15, 14, 10}, {31, 30, 29, 27, 26, 25, 17, 11}, {40, 30, 28, 22, 20, 17, 13, 12}, {40, 32, 31, 30, 29, 28, 23, 22, 21, 20}, {34, 30, 22, 12}, {32, 31, 30, 29, 24, 17}, {49, 34, 32, 28, 24, 22, 20}, {49, 37, 36, 32, 29, 25, 24}, {50, 39, 37, 36, 33, 27, 26}, {49, 40, 37, 30, 28, 24}, {30, 27, 23, 22}, {49, 48, 39, 37, 35, 34, 30}, {50, 49, 48, 47, 46, 39, 37, 35}, {39, 22}, {49, 48, 47, 46, 39, 38, 37, 36}, {50, 48, 47, 46, 37, 36, 35}, {46, 39, 27}, {48, 47, 46, 37, 36, 35}, {49, 48, 47, 46, 38, 33}, {48, 47, 46, 44, 39, 38}, {50, 46, 35, 33}, {48, 47, 46, 45, 44, 38}, {49, 48, 47, 44, 35}, {48, 47, 38, 36}, {47, 46, 45, 35}, {46, 36, 33}, {48, 47, 46, 44, 42, 41}, {47, 46, 38}, {45, 44, 42, 41}, {47, 46, 45, 42}, {38}, {45, 44, 42}, {45, 44, 42}, {42, 41}, {45, 41}, {44, 41}, {43}, {}, {}, {}, {}, {}, {}, {}, {}, {}];
n_opt = 450;
dur = [6, 8, 9, 12, 20, 21, 24, 26, 27, 2, 5, 10, 11, 15, 20, 24, 28, 30, 6, 9, 10, 11, 13, 16, 26, 27, 28, 1, 3, 6, 7, 11, 15, 16, 27, 28, 2, 3, 4, 8, 18, 19, 20, 24, 30, 1, 7, 14, 18, 22, 23, 24, 28, 29, 1, 3, 4, 5, 7, 14, 19, 24, 27, 12, 18, 19, 20, 23, 25, 28, 29, 30, 2, 9, 12, 14, 15, 18, 19, 21, 27, 1, 3, 4, 13, 18, 19, 20, 22, 24, 8, 10, 15, 16, 17, 20, 22, 25, 27, 2, 3, 4, 11, 13, 14, 15, 18, 23, 1, 2, 11, 18, 19, 24, 26, 27, 28, 5, 9, 10, 18, 19, 22, 28, 29, 30, 1, 2, 3, 22, 23, 24, 25, 26, 27, 1, 2, 5, 10, 21, 23, 26, 27, 29, 7, 8, 15, 17, 18, 19, 21, 27, 29, 2, 3, 6, 7, 9, 10, 12, 13, 29, 2, 4, 7, 13, 14, 15, 16, 22, 23, 1, 2, 15, 17, 18, 22, 23, 26, 27, 1, 2, 6, 14, 21, 27, 28, 29, 30, 7, 10, 11, 12, 16, 17, 18, 21, 30, 1, 8, 17, 18, 19, 25, 28, 29, 30, 2, 3, 6, 10, 18, 19, 22, 25, 26, 5, 9, 11, 13, 14, 18, 19, 20, 27, 1, 2, 6, 7, 11, 13, 14, 15, 30, 5, 6, 10, 14, 16, 18, 27, 29, 30, 6, 8, 10, 16, 17, 18, 20, 22, 24, 3, 7, 13, 15, 16, 22, 26, 27, 28, 5, 6, 7, 9, 10, 13, 15, 19, 26, 1, 4, 6, 12, 13, 16, 17, 24, 28, 5, 6, 7, 13, 15, 22, 24, 25, 28, 2, 4, 6, 9, 12, 14, 15, 25, 29, 4, 6, 9, 13, 14, 16, 20, 26, 28, 4, 9, 16, 17, 18, 20, 23, 24, 28, 7, 12, 14, 16, 17, 19, 20, 21, 27, 3, 5, 12, 13, 16, 24, 27, 29, 30, 2, 5, 6, 7, 10, 11, 14, 26, 27, 3, 4, 5, 7, 11, 12, 14, 24, 28, 1, 2, 8, 17, 18, 22, 25, 26, 29, 1, 2, 3, 10, 12, 18, 19, 26, 27, 7, 8, 11, 12, 13, 20, 23, 28, 29, 9, 10, 21, 22, 23, 26, 27, 29, 30, 1, 5, 9, 17, 22, 24, 25, 26, 27, 4, 9, 16, 20, 21, 24, 25, 27, 28, 2, 8, 11, 14, 17, 18, 19, 25, 26, 4, 11, 12, 14, 20, 23, 24, 25, 28, 3, 6, 11, 12, 13, 18, 19, 24, 29, 1, 7, 10, 11, 12, 13, 14, 26, 30, 5, 6, 8, 9, 12, 18, 21, 22, 23];
rreq = [|26, 24, 24, 24, 23, 22, 21, 20, 20, 25, 22, 21, 20, 19, 17, 17, 16, 14, 20, 19, 18, 14, 13, 11, 11, 7, 6, 24, 20, 18, 17, 15, 14, 12, 9, 7, 18, 15, 15, 13, 10, 8, 7, 5, 3, 21, 19, 19, 18, 17, 15, 14, 13, 12, 12, 12, 10, 10, 8, 8, 7, 6, 4, 19, 17, 16, 13, 12, 10, 9, 7, 6, 22, 21, 20, 20, 19, 18, 17, 17, 16, 20, 18, 18, 16, 14, 13, 12, 12, 11, 16, 13, 12, 12, 11, 9, 7, 6, 5, 27, 25, 25, 24, 24, 24, 23, 23, 22, 28, 26, 25, 23, 22, 22, 21, 19, 18, 20, 19, 18, 17, 17, 17, 16, 16, 15, 29, 28, 28, 28, 27, 27, 27, 27, 27, 26, 26, 24, 24, 23, 23, 21, 21, 20, 23, 22, 22, 22, 22, 22, 22, 22, 22, 26, 26, 26, 26, 26, 26, 26, 26, 26, 15, 12, 12, 11, 9, 8, 6, 6, 4, 24, 22, 21, 17, 13, 12, 11, 6, 4, 18, 18, 17, 17, 16, 16, 16, 15, 15, 15, 13, 13, 12, 11, 11, 11, 10, 9, 19, 16, 16, 14, 12, 10, 8, 6, 3, 16, 15, 14, 12, 9, 8, 8, 6, 5, 27, 26, 25, 25, 25, 24, 23, 23, 23, 20, 18, 18, 16, 15, 15, 14, 12, 12, 23, 21, 21, 21, 20, 19, 19, 18, 17, 30, 28, 25, 25, 23, 20, 18, 18, 16, 23, 23, 23, 22, 21, 21, 21, 20, 20, 24, 24, 24, 23, 22, 22, 22, 21, 21, 29, 29, 29, 28, 28, 27, 27, 26, 26, 23, 21, 21, 19, 15, 14, 12, 11, 8, 28, 28, 28, 28, 28, 27, 27, 27, 27, 16, 16, 16, 16, 16, 16, 16, 16, 16, 18, 18, 16, 15, 14, 12, 11, 9, 9, 28, 27, 27, 26, 24, 24, 22, 21, 21, 16, 16, 16, 16, 16, 15, 15, 15, 15, 19, 17, 15, 14, 12, 11, 10, 8, 5, 27, 26, 26, 26, 25, 25, 25, 24, 24, 28, 28, 28, 28, 27, 27, 27, 26, 26, 20, 20, 20, 19, 19, 19, 19, 18, 18, 5, 5, 5, 5, 4, 4, 3, 3, 3, 22, 22, 21, 21, 20, 19, 19, 18, 18, 19, 19, 18, 17, 17, 16, 15, 15, 14, 22, 22, 22, 22, 22, 22, 22, 22, 22, 8, 7, 7, 6, 6, 6, 5, 5, 5, 29, 27, 27, 25, 25, 24, 23, 23, 22, 27, 26, 25, 24, 23, 21, 20, 20, 19, 20, 20, 18, 17, 17, 15, 15, 14, 13, 5, 5, 5, 5, 5, 4, 4, 4, 4
 |27, 26, 24, 21, 19, 18, 14, 12, 12, 12, 11, 11, 8, 7, 6, 3, 3, 2, 9, 8, 7, 7, 5, 5, 5, 4, 3, 24, 23, 21, 20, 17, 16, 15, 13, 13, 6, 6, 6, 6, 6, 5, 5, 5, 5, 21, 20, 19, 17, 17, 15, 14, 13, 13, 30, 29, 29, 28, 27, 27, 27, 26, 26, 16, 14, 14, 13, 12, 12, 12, 10, 10, 9, 8, 8, 7, 6, 6, 5, 5, 5, 24, 19, 17, 16, 12, 9, 8, 4, 4, 10, 10, 8, 7, 6, 5, 5, 3, 2, 11, 10, 9, 9, 9, 8, 8, 7, 7, 30, 29, 29, 29, 29, 29, 29, 29, 29, 25, 24, 24, 24, 24, 24, 24, 24, 24, 10, 9, 8, 7, 5, 5, 3, 2, 2, 6, 6, 5, 5, 4, 4, 3, 2, 2, 26, 24, 23, 21, 18, 15, 13, 11, 8, 17, 14, 14, 13, 12, 10, 10, 9, 8, 16, 15, 14, 13, 12, 11, 9, 9, 8, 27, 27, 24, 21, 20, 18, 17, 14, 11, 25, 23, 21, 19, 18, 18, 15, 15, 14, 19, 19, 17, 16, 16, 15, 14, 13, 12, 27, 26, 25, 24, 21, 20, 19, 17, 16, 21, 21, 17, 17, 13, 11, 8, 8, 4, 26, 25, 23, 20, 19, 18, 15, 14, 12, 22, 20, 19, 15, 14, 11, 10, 5, 3, 19, 18, 16, 16, 15, 15, 14, 13, 12, 5, 4, 4, 4, 4, 4, 4, 4, 4, 21, 20, 20, 18, 18, 17, 16, 14, 14, 8, 8, 8, 8, 8, 8, 8, 8, 8, 10, 9, 8, 7, 6, 6, 5, 4, 3, 23, 20, 19, 18, 15, 14, 13, 11, 10, 30, 29, 29, 29, 28, 28, 28, 27, 27, 21, 20, 18, 18, 17, 17, 15, 15, 14, 21, 20, 19, 17, 16, 15, 13, 13, 12, 22, 21, 21, 21, 19, 19, 18, 18, 17, 24, 22, 22, 19, 17, 15, 13, 12, 10, 4, 4, 4, 4, 4, 4, 4, 4, 4, 27, 24, 22, 22, 18, 16, 16, 13, 10, 22, 20, 19, 15, 13, 11, 9, 7, 3, 27, 25, 25, 25, 23, 23, 22, 22, 21, 19, 16, 16, 15, 12, 12, 9, 8, 8, 26, 22, 20, 19, 17, 15, 13, 10, 10, 15, 15, 15, 15, 15, 14, 14, 14, 14, 26, 25, 22, 22, 19, 18, 17, 15, 15, 28, 23, 22, 18, 17, 13, 11, 10, 7, 24, 20, 19, 17, 14, 9, 9, 3, 2, 17, 17, 15, 14, 13, 11, 9, 9, 8, 19, 17, 17, 17, 16, 15, 15, 13, 13, 25, 24, 24, 23, 22, 22, 21, 21, 20
 |18, 18, 17, 15, 14, 13, 12, 12, 10, 30, 28, 28, 28, 27, 27, 26, 25, 25, 18, 17, 17, 17, 17, 17, 17, 17, 17, 23, 22, 21, 21, 20, 19, 19, 17, 17, 2, 2, 2, 2, 2, 1, 1, 1, 1, 19, 17, 17, 15, 15, 13, 13, 12, 11, 8, 8, 8, 8, 8, 8, 8, 8, 8, 15, 14, 12, 11, 9, 9, 8, 7, 6, 19, 17, 15, 14, 12, 10, 7, 7, 3, 22, 20, 16, 15, 14, 9, 8, 6, 5, 27, 27, 21, 21, 16, 14, 12, 6, 5, 9, 8, 7, 6, 6, 4, 3, 3, 2, 26, 24, 21, 18, 14, 12, 8, 5, 1, 16, 16, 16, 16, 15, 15, 15, 14, 14, 15, 15, 14, 14, 13, 13, 12, 12, 12, 11, 10, 9, 8, 7, 5, 5, 3, 2, 5, 5, 5, 5, 5, 5, 5, 5, 5, 14, 14, 14, 14, 13, 13, 13, 13, 13, 27, 25, 25, 23, 23, 20, 19, 19, 18, 20, 19, 19, 18, 18, 17, 16, 16, 16, 20, 19, 17, 15, 15, 12, 12, 9, 8, 27, 24, 21, 19, 17, 17, 13, 11, 10, 4, 4, 4, 3, 3, 3, 2, 2, 2, 28, 27, 25, 24, 24, 23, 21, 21, 19, 24, 24, 24, 24, 24, 23, 23, 23, 23, 27, 25, 23, 20, 19, 16, 16, 12, 11, 28, 28, 27, 24, 24, 23, 20, 19, 18, 28, 27, 27, 26, 24, 23, 22, 21, 21, 16, 15, 15, 13, 13, 12, 10, 10, 9, 25, 25, 24, 22, 21, 19, 19, 16, 16, 25, 23, 22, 19, 18, 16, 16, 14, 12, 22, 19, 17, 17, 13, 13, 9, 9, 6, 14, 14, 12, 11, 11, 8, 8, 6, 6, 15, 14, 14, 14, 13, 13, 13, 13, 13, 22, 17, 17, 15, 11, 9, 7, 5, 5, 6, 5, 4, 4, 3, 3, 3, 2, 2, 14, 13, 12, 11, 9, 7, 7, 5, 5, 30, 28, 28, 27, 26, 26, 25, 24, 23, 28, 27, 26, 26, 26, 25, 24, 24, 24, 16, 15, 15, 14, 13, 13, 12, 11, 11, 17, 16, 13, 10, 9, 9, 5, 4, 3, 21, 19, 17, 15, 13, 12, 10, 9, 6, 16, 15, 13, 12, 11, 10, 8, 7, 6, 27, 24, 24, 23, 20, 19, 16, 16, 13, 15, 14, 14, 12, 11, 10, 9, 9, 8, 26, 25, 24, 23, 22, 21, 21, 19, 19, 19, 16, 16, 14, 12, 11, 11, 9, 8, 20, 18, 18, 16, 15, 15, 13, 13, 12, 9, 9, 7, 6, 6, 4, 3, 3, 1, 26, 22, 18, 14, 13, 12, 6, 4, 1
 |23, 22, 22, 22, 22, 22, 22, 22, 22, 21, 18, 15, 12, 11, 9, 6, 4, 3, 22, 21, 21, 21, 20, 20, 19, 20, 20, 21, 20, 20, 20, 19, 19, 19, 18, 18, 20, 18, 15, 15, 13, 10, 8, 8, 6, 4, 4, 4, 4, 4, 4, 4, 4, 4, 26, 25, 23, 20, 16, 15, 12, 11, 9, 30, 27, 25, 23, 21, 16, 16, 13, 12, 13, 11, 9, 8, 7, 5, 5, 2, 1, 12, 11, 11, 11, 10, 10, 10, 10, 10, 28, 28, 27, 26, 26, 26, 25, 25, 24, 15, 13, 12, 11, 8, 8, 5, 4, 3, 18, 17, 15, 15, 14, 11, 11, 9, 9, 14, 13, 12, 11, 11, 10, 10, 10, 9, 15, 13, 12, 10, 10, 8, 8, 6, 4, 19, 17, 16, 16, 15, 14, 13, 12, 11, 29, 28, 27, 24, 23, 22, 21, 18, 18, 8, 7, 6, 6, 6, 6, 5, 5, 5, 14, 13, 13, 13, 12, 12, 12, 11, 11, 22, 19, 18, 17, 13, 12, 9, 9, 6, 21, 20, 19, 19, 18, 18, 17, 17, 17, 25, 23, 21, 21, 18, 18, 15, 14, 14, 8, 7, 7, 6, 6, 6, 5, 5, 5, 14, 14, 14, 14, 14, 13, 13, 13, 13, 15, 15, 12, 11, 11, 8, 7, 6, 4, 24, 24, 22, 20, 17, 15, 14, 13, 11, 26, 23, 21, 19, 15, 13, 10, 7, 7, 12, 11, 11, 10, 9, 9, 9, 8, 8, 21, 20, 17, 16, 13, 12, 11, 8, 8, 16, 15, 16, 16, 15, 15, 14, 14, 13, 1, 1, 1, 1, 1, 1, 1, 1, 1, 11, 10, 10, 9, 7, 5, 4, 4, 2, 20, 19, 19, 19, 18, 18, 17, 16, 15, 27, 23, 22, 21, 19, 18, 16, 14, 14, 29, 27, 27, 24, 23, 21, 20, 19, 17, 24, 21, 20, 19, 18, 17, 14, 12, 12, 26, 25, 25, 25, 25, 25, 25, 25, 25, 27, 25, 22, 20, 19, 14, 13, 10, 8, 20, 17, 16, 14, 12, 10, 10, 6, 5, 29, 26, 26, 24, 23, 22, 19, 18, 18, 12, 12, 12, 12, 12, 11, 12, 12, 12, 3, 3, 3, 3, 2, 2, 2, 2, 2, 8, 7, 7, 6, 6, 5, 5, 4, 3, 22, 19, 19, 18, 14, 14, 12, 10, 8, 12, 11, 11, 10, 10, 10, 10, 9, 9, 12, 11, 10, 10, 9, 8, 7, 5, 4, 26, 24, 22, 19, 18, 14, 12, 12, 8, 24, 24, 23, 22, 19, 19, 17, 16, 16, 25, 22, 21, 19, 15, 13, 13, 9, 9, 13, 12, 12, 12, 11, 10, 9, 8, 8|];